100
100
314 9
439 24
969 10
275 5
249 3
203 4
66 7
919 22
351 15
212 4
846 15
630 9
873 21
111 6
153 11
351 18
219 14
794 15
123 18
269 24
673 21
902 13
580 23
686 5
364 24
810 9
488 15
219 12
410 6
219 15
793 19
84 14
358 2
903 5
297 21
555 21
993 9
58 22
981 21
854 21
344 13
256 9
102 24
247 14
506 16
130 23
34 13
661 18
442 13
575 13
85 4
58 3
937 17
1 19
914 4
964 10
517 21
145 20
396 16
185 1
208 14
199 19
879 11
336 22
774 12
761 10
391 20
287 4
636 13
300 2
493 13
511 11
186 5
683 6
397 17
482 5
533 7
198 13
242 10
434 15
147 19
577 14
715 13
919 2
502 18
603 22
833 13
707 18
119 14
598 16
256 4
120 15
110 19
902 4
905 12
70 3
880 21
291 19
509 10
295 12
